0
Node Left Objective IInf Best_Integer Best_Bound ItCnt Gap
0+ 0 nan nan 1364.7233 0.0000 nan 100.00%
0 0 707.7725 9 1364.7233 707.7725 13 48.14%
0+ 0 nan nan 1256.1229 707.7725 nan 43.65%
0+ 0 nan nan 1098.5732 707.7725 nan 35.57%
0 2 707.7725 9 1098.5732 707.7725 13 35.57%
CPXPARAM_MIP_Cuts_LiftProj 0
1
Node Left Objective IInf Best_Integer Best_Bound ItCnt Gap
0+ 0 nan nan 1364.7233 0.0000 nan 100.00%
0 0 0 707.7725 707.7725 13 0.00% 0
CPXPARAM_MIP_Cuts_LiftProj 0
2
Node Left Objective IInf Best_Integer Best_Bound ItCnt Gap
0+ 0 nan nan 1364.7233 0.0000 nan 100.00%
0 0 712.4119 6 1364.7233 712.4119 13 47.80%
0+ 0 nan nan 1246.8030 712.4119 nan 42.86%
0+ 0 nan nan 856.8252 712.4119 nan 16.85%
0 2 712.4119 5 856.8252 712.4119 13 16.85%
CPXPARAM_MIP_Cuts_LiftProj 0
3
Node Left Objective IInf Best_Integer Best_Bound ItCnt Gap
0+ 0 nan nan 1364.7233 0.0000 nan 100.00%
0 0 767.7014 7 1364.7233 767.7014 13 43.75%
0+ 0 nan nan 767.7014 767.7014 nan 0.00%
0 0 cutoff 767.7014 767.7014 13 0.00% 0
CPXPARAM_MIP_Cuts_LiftProj 0
4
Node Left Objective IInf Best_Integer Best_Bound ItCnt Gap
0+ 0 nan nan 1151.9244 0.0000 nan 100.00%
0 0 804.5059 9 1151.9244 804.5059 12 30.16%
0+ 0 nan nan 1141.1136 804.5059 nan 29.50%
0+ 0 nan nan 943.7973 804.5059 nan 14.76%
0+ 0 nan nan 934.7700 804.5059 nan 13.94%
0 2 804.5059 9 934.7700 804.5059 12 13.94%
CPXPARAM_MIP_Cuts_LiftProj 0
5
Node Left Objective IInf Best_Integer Best_Bound ItCnt Gap
0+ 0 nan nan 1151.9244 0.0000 nan 100.00%
0 0 0 804.5059 804.5059 14 0.00% 0
CPXPARAM_MIP_Cuts_LiftProj 0
6
Node Left Objective IInf Best_Integer Best_Bound ItCnt Gap
0+ 0 nan nan 1151.9244 0.0000 nan 100.00%
0 0 804.5059 8 1151.9244 804.5059 14 30.16%
0+ 0 nan nan 1107.5453 804.5059 nan 27.36%
0+ 0 nan nan 1095.6274 804.5059 nan 26.57%
0+ 0 nan nan 1048.1905 804.5059 nan 23.25%
0 2 804.5059 8 1048.1905 804.5059 14 23.25%
CPXPARAM_MIP_Cuts_LiftProj 0
7
Node Left Objective IInf Best_Integer Best_Bound ItCnt Gap
0+ 0 nan nan 1151.9244 0.0000 nan 100.00%
0 0 812.0465 6 1151.9244 812.0465 13 29.51%
0+ 0 nan nan 812.0465 812.0465 nan 0.00%
0 0 cutoff 812.0465 812.0465 13 0.00% 0
CPXPARAM_MIP_Cuts_LiftProj 0
8
Node Left Objective IInf Best_Integer Best_Bound ItCnt Gap
0+ 0 nan nan 1316.0374 0.0000 nan 100.00%
0 0 989.3200 9 1316.0374 989.3200 12 24.83%
0+ 0 nan nan 1297.4734 989.3200 nan 23.75%
0+ 0 nan nan 1148.2856 989.3200 nan 13.84%
0 2 989.3200 9 1148.2856 989.3200 12 13.84%
CPXPARAM_MIP_Cuts_LiftProj 0
9
Node Left Objective IInf Best_Integer Best_Bound ItCnt Gap
0+ 0 nan nan 1316.0374 0.0000 nan 100.00%
0 0 0 1000.8791 1000.8791 14 0.00% 0
CPXPARAM_MIP_Cuts_LiftProj 0
10
Node Left Objective IInf Best_Integer Best_Bound ItCnt Gap
0+ 0 nan nan 1316.0374 0.0000 nan 100.00%
0 0 991.1867 6 1316.0374 991.1867 13 24.68%
0+ 0 nan nan 1205.1602 991.1867 nan 17.75%
0+ 0 nan nan 1163.8355 991.1867 nan 14.83%
0+ 0 nan nan 1161.6245 991.1867 nan 14.67%
0 2 991.1867 6 1161.6245 991.1867 13 14.67%
CPXPARAM_MIP_Cuts_LiftProj 0
11
Node Left Objective IInf Best_Integer Best_Bound ItCnt Gap
0+ 0 nan nan 1316.0374 0.0000 nan 100.00%
0 0 1001.2216 6 1316.0374 1001.2216 12 23.92%
0+ 0 nan nan 1001.2216 1001.2216 nan 0.00%
0 0 cutoff 1001.2216 1001.2216 12 0.00% 0
CPXPARAM_MIP_Cuts_LiftProj 0
12
Node Left Objective IInf Best_Integer Best_Bound ItCnt Gap
0+ 0 nan nan 1103.5671 0.0000 nan 100.00%
0 0 805.3814 8 1103.5671 805.3814 13 27.02%
0+ 0 nan nan 1093.9162 805.3814 nan 26.38%
0+ 0 nan nan 964.0418 805.3814 nan 16.46%
0 2 805.3814 8 964.0418 805.3814 13 16.46%
CPXPARAM_MIP_Cuts_LiftProj 0
13
Node Left Objective IInf Best_Integer Best_Bound ItCnt Gap
0+ 0 nan nan 1103.5671 0.0000 nan 100.00%
0 0 0 837.8540 837.8540 12 0.00% 0
CPXPARAM_MIP_Cuts_LiftProj 0
14
Node Left Objective IInf Best_Integer Best_Bound ItCnt Gap
0+ 0 nan nan 1103.5671 0.0000 nan 100.00%
0 0 805.3814 8 1103.5671 805.3814 13 27.02%
0+ 0 nan nan 1103.5570 805.3814 nan 27.02%
0+ 0 nan nan 1066.3334 805.3814 nan 24.47%
0+ 0 nan nan 1059.3984 805.3814 nan 23.98%
0 2 805.3814 8 1059.3984 805.3814 13 23.98%
CPXPARAM_MIP_Cuts_LiftProj 0
15
Node Left Objective IInf Best_Integer Best_Bound ItCnt Gap
0+ 0 nan nan 1103.5671 0.0000 nan 100.00%
0 0 848.5070 6 1103.5671 848.5070 13 23.11%
0+ 0 nan nan 848.5070 848.5070 nan 0.00%
0 0 cutoff 848.5070 848.5070 13 0.00% 0
CPXPARAM_MIP_Cuts_LiftProj 0
16
Node Left Objective IInf Best_Integer Best_Bound ItCnt Gap
0+ 0 nan nan 1092.9842 0.0000 nan 100.00%
0 0 877.0823 8 1092.9842 877.0823 11 19.75%
0+ 0 nan nan 1089.1526 877.0823 nan 19.47%
0+ 0 nan nan 971.2909 877.0823 nan 9.70%
0 2 877.0823 7 971.2909 877.0823 11 9.70%
CPXPARAM_MIP_Cuts_LiftProj 0
17
Node Left Objective IInf Best_Integer Best_Bound ItCnt Gap
0+ 0 nan nan 1092.9842 0.0000 nan 100.00%
0 0 0 886.3787 886.3787 13 0.00% 0
CPXPARAM_MIP_Cuts_LiftProj 0
18
Node Left Objective IInf Best_Integer Best_Bound ItCnt Gap
0+ 0 nan nan 1092.9842 0.0000 nan 100.00%
0 0 886.3787 7 1092.9842 886.3787 11 18.90%
0+ 0 nan nan 1085.0621 886.3787 nan 18.31%
0+ 0 nan nan 982.0431 886.3787 nan 9.74%
0 2 886.3787 6 982.0431 886.3787 11 9.74%
CPXPARAM_MIP_Cuts_LiftProj 0
19
Node Left Objective IInf Best_Integer Best_Bound ItCnt Gap
0+ 0 nan nan 1092.9842 0.0000 nan 100.00%
0 0 900.3151 5 1092.9842 900.3151 11 17.63%
0+ 0 nan nan 900.3151 900.3151 nan 0.00%
0 0 cutoff 900.3151 900.3151 11 0.00% 0
CPXPARAM_MIP_Cuts_LiftProj 0
20
Node Left Objective IInf Best_Integer Best_Bound ItCnt Gap
0+ 0 nan nan 933.7925 0.0000 nan 100.00%
0 0 586.9854 9 933.7925 586.9854 11 37.14%
0+ 0 nan nan 921.6569 586.9854 nan 36.31%
0+ 0 nan nan 677.4287 586.9854 nan 13.35%
0 2 586.9854 7 677.4287 586.9854 11 13.35%
CPXPARAM_MIP_Cuts_LiftProj 0
21
Node Left Objective IInf Best_Integer Best_Bound ItCnt Gap
0+ 0 nan nan 933.7925 0.0000 nan 100.00%
0 0 0 586.9854 586.9854 11 0.00% 0
CPXPARAM_MIP_Cuts_LiftProj 0
22
Node Left Objective IInf Best_Integer Best_Bound ItCnt Gap
0+ 0 nan nan 933.7925 0.0000 nan 100.00%
0 0 587.3488 7 933.7925 587.3488 11 37.10%
0+ 0 nan nan 897.4946 587.3488 nan 34.56%
0+ 0 nan nan 840.0842 587.3488 nan 30.08%
0 2 587.3488 7 840.0842 587.3488 11 30.08%
CPXPARAM_MIP_Cuts_LiftProj 0
23
Node Left Objective IInf Best_Integer Best_Bound ItCnt Gap
0+ 0 nan nan 933.7925 0.0000 nan 100.00%
0 0 597.5885 7 933.7925 597.5885 12 36.00%
0+ 0 nan nan 597.5885 597.5885 nan 0.00%
0 0 cutoff 597.5885 597.5885 12 0.00% 0
CPXPARAM_MIP_Cuts_LiftProj 0
24
Node Left Objective IInf Best_Integer Best_Bound ItCnt Gap
0+ 0 nan nan 945.0450 0.0000 nan 100.00%
0 0 691.3327 9 945.0450 691.3327 13 26.85%
0+ 0 nan nan 939.6644 691.3327 nan 26.43%
0+ 0 nan nan 835.7843 691.3327 nan 17.28%
0 2 691.3327 9 835.7843 691.3327 13 17.28%
CPXPARAM_MIP_Cuts_LiftProj 0
25
Node Left Objective IInf Best_Integer Best_Bound ItCnt Gap
0+ 0 nan nan 945.0450 0.0000 nan 100.00%
0 0 0 691.4451 691.4451 13 0.00% 0
CPXPARAM_MIP_Cuts_LiftProj 0
26
Node Left Objective IInf Best_Integer Best_Bound ItCnt Gap
0+ 0 nan nan 945.0450 0.0000 nan 100.00%
0 0 697.1328 6 945.0450 697.1328 13 26.23%
0+ 0 nan nan 938.1434 697.1328 nan 25.69%
0+ 0 nan nan 851.8752 697.1328 nan 18.16%
0 2 697.1328 6 851.8752 697.1328 13 18.16%
CPXPARAM_MIP_Cuts_LiftProj 0
27
Node Left Objective IInf Best_Integer Best_Bound ItCnt Gap
0+ 0 nan nan 945.0450 0.0000 nan 100.00%
0 0 692.1198 7 945.0450 692.1198 13 26.76%
0+ 0 nan nan 938.3762 692.1198 nan 26.24%
0+ 0 nan nan 885.4410 692.1198 nan 21.83%
0+ 0 nan nan 769.7505 692.1198 nan 10.09%
0+ 0 nan nan 733.3510 692.1198 nan 5.62%
0 2 692.1198 5 733.3510 692.1198 13 5.62%
CPXPARAM_MIP_Cuts_LiftProj 0
28
Node Left Objective IInf Best_Integer Best_Bound ItCnt Gap
0+ 0 nan nan 1337.0922 0.0000 nan 100.00%
0 0 1047.8755 9 1337.0922 1047.8755 13 21.63%
0+ 0 nan nan 1316.0757 1047.8755 nan 20.38%
0+ 0 nan nan 1259.7351 1047.8755 nan 16.82%
0+ 0 nan nan 1141.0900 1047.8755 nan 8.17%
0 2 1047.8755 8 1141.0900 1047.8755 13 8.17%
CPXPARAM_MIP_Cuts_LiftProj 0
29
Node Left Objective IInf Best_Integer Best_Bound ItCnt Gap
0+ 0 nan nan 1337.0922 0.0000 nan 100.00%
0 0 0 1047.8755 1047.8755 12 0.00% 0
CPXPARAM_MIP_Cuts_LiftProj 0
30
Node Left Objective IInf Best_Integer Best_Bound ItCnt Gap
0+ 0 nan nan 1337.0922 0.0000 nan 100.00%
0 0 1047.8755 8 1337.0922 1047.8755 13 21.63%
0+ 0 nan nan 1313.2548 1047.8755 nan 20.21%
0+ 0 nan nan 1308.1637 1047.8755 nan 19.90%
0 2 1047.8755 8 1308.1637 1047.8755 13 19.90%
CPXPARAM_MIP_Cuts_LiftProj 0
31
Node Left Objective IInf Best_Integer Best_Bound ItCnt Gap
0+ 0 nan nan 1337.0922 0.0000 nan 100.00%
0 0 1047.8755 8 1337.0922 1047.8755 12 21.63%
0+ 0 nan nan 1047.8755 1047.8755 nan 0.00%
0 0 cutoff 1047.8755 1047.8755 12 0.00% 0
CPXPARAM_MIP_Cuts_LiftProj 0
32
Node Left Objective IInf Best_Integer Best_Bound ItCnt Gap
0+ 0 nan nan 1107.0587 0.0000 nan 100.00%
0 0 690.4898 9 1107.0587 690.4898 12 37.63%
0+ 0 nan nan 1030.0515 690.4898 nan 32.97%
0+ 0 nan nan 867.6344 690.4898 nan 20.42%
0 2 690.4898 9 867.6344 690.4898 12 20.42%
CPXPARAM_MIP_Cuts_LiftProj 0
33
Node Left Objective IInf Best_Integer Best_Bound ItCnt Gap
0+ 0 nan nan 1107.0587 0.0000 nan 100.00%
0 0 0 690.4898 690.4898 12 0.00% 0
CPXPARAM_MIP_Cuts_LiftProj 0
34
Node Left Objective IInf Best_Integer Best_Bound ItCnt Gap
0+ 0 nan nan 1107.0587 0.0000 nan 100.00%
0 0 691.2918 7 1107.0587 691.2918 12 37.56%
0+ 0 nan nan 1021.8941 691.2918 nan 32.35%
0+ 0 nan nan 913.8167 691.2918 nan 24.35%
0 2 691.2918 7 913.8167 691.2918 12 24.35%
CPXPARAM_MIP_Cuts_LiftProj 0
35
Node Left Objective IInf Best_Integer Best_Bound ItCnt Gap
0+ 0 nan nan 1107.0587 0.0000 nan 100.00%
0 0 792.5126 7 1107.0587 792.5126 13 28.41%
0+ 0 nan nan 792.5126 792.5126 nan 0.00%
0 0 cutoff 792.5126 792.5126 13 0.00% 0
CPXPARAM_MIP_Cuts_LiftProj 0
36
Node Left Objective IInf Best_Integer Best_Bound ItCnt Gap
0+ 0 nan nan 1237.1346 0.0000 nan 100.00%
0 0 813.3288 9 1237.1346 813.3288 12 34.26%
0+ 0 nan nan 1129.0032 813.3288 nan 27.96%
0+ 0 nan nan 923.2042 813.3288 nan 11.90%
0 2 813.3288 9 923.2042 813.3288 12 11.90%
CPXPARAM_MIP_Cuts_LiftProj 0
37
Node Left Objective IInf Best_Integer Best_Bound ItCnt Gap
0+ 0 nan nan 1237.1346 0.0000 nan 100.00%
0 0 0 813.3288 813.3288 13 0.00% 0
CPXPARAM_MIP_Cuts_LiftProj 0
38
Node Left Objective IInf Best_Integer Best_Bound ItCnt Gap
0+ 0 nan nan 1237.1346 0.0000 nan 100.00%
0 0 813.3300 7 1237.1346 813.3300 14 34.26%
0+ 0 nan nan 1128.2413 813.3300 nan 27.91%
0+ 0 nan nan 1047.7741 813.3300 nan 22.38%
0+ 0 nan nan 1022.2168 813.3300 nan 20.43%
0 2 813.3300 7 1022.2168 813.3300 14 20.43%
CPXPARAM_MIP_Cuts_LiftProj 0
39
Node Left Objective IInf Best_Integer Best_Bound ItCnt Gap
0+ 0 nan nan 1237.1346 0.0000 nan 100.00%
0 0 819.1089 5 1237.1346 819.1089 13 33.79%
0+ 0 nan nan 819.1089 819.1089 nan 0.00%
0 0 cutoff 819.1089 819.1089 13 0.00% 0
CPXPARAM_MIP_Cuts_LiftProj 0
